NAME: random_points
TYPE: TSP
DIMENSION: 40
EDGE_WEIGHT_TYPE: EUC_2D
NODE_COORD_SECTION
1 259 323
2 734 535
3 875 646
4 95 580
5 678 448
6 527 411
7 895 25
8 813 102
9 239 734
10 1 799
11 667 776
12 596 226
13 510 704
14 197 664
15 574 75
16 240 857
17 381 359
18 980 272
19 176 820
20 410 218
21 707 914
22 227 973
23 527 175
24 581 895
25 141 946
26 439 831
27 0 485
28 904 460
29 149 445
30 85 840
31 574 224
32 455 536
33 398 694
34 466 209
35 75 797
36 110 220
37 366 22
38 203 464
39 255 834
40 55 190
EOF
